4 
5  09 33 48 
6  03 18 33 48 
7  03 18 33 48 
8  03 18 33 48 
9  03 18 33 48 
10  03 18 33 48 
11  03 18 33 48 
12  03 18 33 48 
13  03 20 35 50 
14  05 20 35 50 
15  05 20 35 50 
16  05 20 35 50 
17  05 20 35 50 
18  05 20 35 50 
19  04 18 33 48 
20  03 18 33 48 
21  03 18 33 48 
22  03 24 39 54 
23  09 
0 
